c *********************************
c * Circuit generated by BenCGen
c *
c * CarrySaveAdder_63_63_63_63_64
c *
c * Ports with 1 gate(s): 2
c * Ports with 2 gate(s): 316
c * Total gates: 318
c *********************************
p cnf 507 1078
1 318 0
-1 -318 0
1 -317 0
318 -317 0
-1 -318 317 0
317 -253 0
-317 253 0
1 64 -319 0
-1 64 319 0
1 -64 319 0
-1 -64 -319 0
319 127 -190 0
-319 127 190 0
319 -127 190 0
-319 -127 -190 0
127 -320 0
319 -320 0
-127 -319 320 0
64 -321 0
1 -321 0
-64 -1 321 0
-320 254 0
-321 254 0
320 321 -254 0
2 65 -322 0
-2 65 322 0
2 -65 322 0
-2 -65 -322 0
322 128 -191 0
-322 128 191 0
322 -128 191 0
-322 -128 -191 0
128 -323 0
322 -323 0
-128 -322 323 0
65 -324 0
2 -324 0
-65 -2 324 0
-323 255 0
-324 255 0
323 324 -255 0
3 66 -325 0
-3 66 325 0
3 -66 325 0
-3 -66 -325 0
325 129 -192 0
-325 129 192 0
325 -129 192 0
-325 -129 -192 0
129 -326 0
325 -326 0
-129 -325 326 0
66 -327 0
3 -327 0
-66 -3 327 0
-326 256 0
-327 256 0
326 327 -256 0
4 67 -328 0
-4 67 328 0
4 -67 328 0
-4 -67 -328 0
328 130 -193 0
-328 130 193 0
328 -130 193 0
-328 -130 -193 0
130 -329 0
328 -329 0
-130 -328 329 0
67 -330 0
4 -330 0
-67 -4 330 0
-329 257 0
-330 257 0
329 330 -257 0
5 68 -331 0
-5 68 331 0
5 -68 331 0
-5 -68 -331 0
331 131 -194 0
-331 131 194 0
331 -131 194 0
-331 -131 -194 0
131 -332 0
331 -332 0
-131 -331 332 0
68 -333 0
5 -333 0
-68 -5 333 0
-332 258 0
-333 258 0
332 333 -258 0
6 69 -334 0
-6 69 334 0
6 -69 334 0
-6 -69 -334 0
334 132 -195 0
-334 132 195 0
334 -132 195 0
-334 -132 -195 0
132 -335 0
334 -335 0
-132 -334 335 0
69 -336 0
6 -336 0
-69 -6 336 0
-335 259 0
-336 259 0
335 336 -259 0
7 70 -337 0
-7 70 337 0
7 -70 337 0
-7 -70 -337 0
337 133 -196 0
-337 133 196 0
337 -133 196 0
-337 -133 -196 0
133 -338 0
337 -338 0
-133 -337 338 0
70 -339 0
7 -339 0
-70 -7 339 0
-338 260 0
-339 260 0
338 339 -260 0
8 71 -340 0
-8 71 340 0
8 -71 340 0
-8 -71 -340 0
340 134 -197 0
-340 134 197 0
340 -134 197 0
-340 -134 -197 0
134 -341 0
340 -341 0
-134 -340 341 0
71 -342 0
8 -342 0
-71 -8 342 0
-341 261 0
-342 261 0
341 342 -261 0
9 72 -343 0
-9 72 343 0
9 -72 343 0
-9 -72 -343 0
343 135 -198 0
-343 135 198 0
343 -135 198 0
-343 -135 -198 0
135 -344 0
343 -344 0
-135 -343 344 0
72 -345 0
9 -345 0
-72 -9 345 0
-344 262 0
-345 262 0
344 345 -262 0
10 73 -346 0
-10 73 346 0
10 -73 346 0
-10 -73 -346 0
346 136 -199 0
-346 136 199 0
346 -136 199 0
-346 -136 -199 0
136 -347 0
346 -347 0
-136 -346 347 0
73 -348 0
10 -348 0
-73 -10 348 0
-347 263 0
-348 263 0
347 348 -263 0
11 74 -349 0
-11 74 349 0
11 -74 349 0
-11 -74 -349 0
349 137 -200 0
-349 137 200 0
349 -137 200 0
-349 -137 -200 0
137 -350 0
349 -350 0
-137 -349 350 0
74 -351 0
11 -351 0
-74 -11 351 0
-350 264 0
-351 264 0
350 351 -264 0
12 75 -352 0
-12 75 352 0
12 -75 352 0
-12 -75 -352 0
352 138 -201 0
-352 138 201 0
352 -138 201 0
-352 -138 -201 0
138 -353 0
352 -353 0
-138 -352 353 0
75 -354 0
12 -354 0
-75 -12 354 0
-353 265 0
-354 265 0
353 354 -265 0
13 76 -355 0
-13 76 355 0
13 -76 355 0
-13 -76 -355 0
355 139 -202 0
-355 139 202 0
355 -139 202 0
-355 -139 -202 0
139 -356 0
355 -356 0
-139 -355 356 0
76 -357 0
13 -357 0
-76 -13 357 0
-356 266 0
-357 266 0
356 357 -266 0
14 77 -358 0
-14 77 358 0
14 -77 358 0
-14 -77 -358 0
358 140 -203 0
-358 140 203 0
358 -140 203 0
-358 -140 -203 0
140 -359 0
358 -359 0
-140 -358 359 0
77 -360 0
14 -360 0
-77 -14 360 0
-359 267 0
-360 267 0
359 360 -267 0
15 78 -361 0
-15 78 361 0
15 -78 361 0
-15 -78 -361 0
361 141 -204 0
-361 141 204 0
361 -141 204 0
-361 -141 -204 0
141 -362 0
361 -362 0
-141 -361 362 0
78 -363 0
15 -363 0
-78 -15 363 0
-362 268 0
-363 268 0
362 363 -268 0
16 79 -364 0
-16 79 364 0
16 -79 364 0
-16 -79 -364 0
364 142 -205 0
-364 142 205 0
364 -142 205 0
-364 -142 -205 0
142 -365 0
364 -365 0
-142 -364 365 0
79 -366 0
16 -366 0
-79 -16 366 0
-365 269 0
-366 269 0
365 366 -269 0
17 80 -367 0
-17 80 367 0
17 -80 367 0
-17 -80 -367 0
367 143 -206 0
-367 143 206 0
367 -143 206 0
-367 -143 -206 0
143 -368 0
367 -368 0
-143 -367 368 0
80 -369 0
17 -369 0
-80 -17 369 0
-368 270 0
-369 270 0
368 369 -270 0
18 81 -370 0
-18 81 370 0
18 -81 370 0
-18 -81 -370 0
370 144 -207 0
-370 144 207 0
370 -144 207 0
-370 -144 -207 0
144 -371 0
370 -371 0
-144 -370 371 0
81 -372 0
18 -372 0
-81 -18 372 0
-371 271 0
-372 271 0
371 372 -271 0
19 82 -373 0
-19 82 373 0
19 -82 373 0
-19 -82 -373 0
373 145 -208 0
-373 145 208 0
373 -145 208 0
-373 -145 -208 0
145 -374 0
373 -374 0
-145 -373 374 0
82 -375 0
19 -375 0
-82 -19 375 0
-374 272 0
-375 272 0
374 375 -272 0
20 83 -376 0
-20 83 376 0
20 -83 376 0
-20 -83 -376 0
376 146 -209 0
-376 146 209 0
376 -146 209 0
-376 -146 -209 0
146 -377 0
376 -377 0
-146 -376 377 0
83 -378 0
20 -378 0
-83 -20 378 0
-377 273 0
-378 273 0
377 378 -273 0
21 84 -379 0
-21 84 379 0
21 -84 379 0
-21 -84 -379 0
379 147 -210 0
-379 147 210 0
379 -147 210 0
-379 -147 -210 0
147 -380 0
379 -380 0
-147 -379 380 0
84 -381 0
21 -381 0
-84 -21 381 0
-380 274 0
-381 274 0
380 381 -274 0
22 85 -382 0
-22 85 382 0
22 -85 382 0
-22 -85 -382 0
382 148 -211 0
-382 148 211 0
382 -148 211 0
-382 -148 -211 0
148 -383 0
382 -383 0
-148 -382 383 0
85 -384 0
22 -384 0
-85 -22 384 0
-383 275 0
-384 275 0
383 384 -275 0
23 86 -385 0
-23 86 385 0
23 -86 385 0
-23 -86 -385 0
385 149 -212 0
-385 149 212 0
385 -149 212 0
-385 -149 -212 0
149 -386 0
385 -386 0
-149 -385 386 0
86 -387 0
23 -387 0
-86 -23 387 0
-386 276 0
-387 276 0
386 387 -276 0
24 87 -388 0
-24 87 388 0
24 -87 388 0
-24 -87 -388 0
388 150 -213 0
-388 150 213 0
388 -150 213 0
-388 -150 -213 0
150 -389 0
388 -389 0
-150 -388 389 0
87 -390 0
24 -390 0
-87 -24 390 0
-389 277 0
-390 277 0
389 390 -277 0
25 88 -391 0
-25 88 391 0
25 -88 391 0
-25 -88 -391 0
391 151 -214 0
-391 151 214 0
391 -151 214 0
-391 -151 -214 0
151 -392 0
391 -392 0
-151 -391 392 0
88 -393 0
25 -393 0
-88 -25 393 0
-392 278 0
-393 278 0
392 393 -278 0
26 89 -394 0
-26 89 394 0
26 -89 394 0
-26 -89 -394 0
394 152 -215 0
-394 152 215 0
394 -152 215 0
-394 -152 -215 0
152 -395 0
394 -395 0
-152 -394 395 0
89 -396 0
26 -396 0
-89 -26 396 0
-395 279 0
-396 279 0
395 396 -279 0
27 90 -397 0
-27 90 397 0
27 -90 397 0
-27 -90 -397 0
397 153 -216 0
-397 153 216 0
397 -153 216 0
-397 -153 -216 0
153 -398 0
397 -398 0
-153 -397 398 0
90 -399 0
27 -399 0
-90 -27 399 0
-398 280 0
-399 280 0
398 399 -280 0
28 91 -400 0
-28 91 400 0
28 -91 400 0
-28 -91 -400 0
400 154 -217 0
-400 154 217 0
400 -154 217 0
-400 -154 -217 0
154 -401 0
400 -401 0
-154 -400 401 0
91 -402 0
28 -402 0
-91 -28 402 0
-401 281 0
-402 281 0
401 402 -281 0
29 92 -403 0
-29 92 403 0
29 -92 403 0
-29 -92 -403 0
403 155 -218 0
-403 155 218 0
403 -155 218 0
-403 -155 -218 0
155 -404 0
403 -404 0
-155 -403 404 0
92 -405 0
29 -405 0
-92 -29 405 0
-404 282 0
-405 282 0
404 405 -282 0
30 93 -406 0
-30 93 406 0
30 -93 406 0
-30 -93 -406 0
406 156 -219 0
-406 156 219 0
406 -156 219 0
-406 -156 -219 0
156 -407 0
406 -407 0
-156 -406 407 0
93 -408 0
30 -408 0
-93 -30 408 0
-407 283 0
-408 283 0
407 408 -283 0
31 94 -409 0
-31 94 409 0
31 -94 409 0
-31 -94 -409 0
409 157 -220 0
-409 157 220 0
409 -157 220 0
-409 -157 -220 0
157 -410 0
409 -410 0
-157 -409 410 0
94 -411 0
31 -411 0
-94 -31 411 0
-410 284 0
-411 284 0
410 411 -284 0
32 95 -412 0
-32 95 412 0
32 -95 412 0
-32 -95 -412 0
412 158 -221 0
-412 158 221 0
412 -158 221 0
-412 -158 -221 0
158 -413 0
412 -413 0
-158 -412 413 0
95 -414 0
32 -414 0
-95 -32 414 0
-413 285 0
-414 285 0
413 414 -285 0
33 96 -415 0
-33 96 415 0
33 -96 415 0
-33 -96 -415 0
415 159 -222 0
-415 159 222 0
415 -159 222 0
-415 -159 -222 0
159 -416 0
415 -416 0
-159 -415 416 0
96 -417 0
33 -417 0
-96 -33 417 0
-416 286 0
-417 286 0
416 417 -286 0
34 97 -418 0
-34 97 418 0
34 -97 418 0
-34 -97 -418 0
418 160 -223 0
-418 160 223 0
418 -160 223 0
-418 -160 -223 0
160 -419 0
418 -419 0
-160 -418 419 0
97 -420 0
34 -420 0
-97 -34 420 0
-419 287 0
-420 287 0
419 420 -287 0
35 98 -421 0
-35 98 421 0
35 -98 421 0
-35 -98 -421 0
421 161 -224 0
-421 161 224 0
421 -161 224 0
-421 -161 -224 0
161 -422 0
421 -422 0
-161 -421 422 0
98 -423 0
35 -423 0
-98 -35 423 0
-422 288 0
-423 288 0
422 423 -288 0
36 99 -424 0
-36 99 424 0
36 -99 424 0
-36 -99 -424 0
424 162 -225 0
-424 162 225 0
424 -162 225 0
-424 -162 -225 0
162 -425 0
424 -425 0
-162 -424 425 0
99 -426 0
36 -426 0
-99 -36 426 0
-425 289 0
-426 289 0
425 426 -289 0
37 100 -427 0
-37 100 427 0
37 -100 427 0
-37 -100 -427 0
427 163 -226 0
-427 163 226 0
427 -163 226 0
-427 -163 -226 0
163 -428 0
427 -428 0
-163 -427 428 0
100 -429 0
37 -429 0
-100 -37 429 0
-428 290 0
-429 290 0
428 429 -290 0
38 101 -430 0
-38 101 430 0
38 -101 430 0
-38 -101 -430 0
430 164 -227 0
-430 164 227 0
430 -164 227 0
-430 -164 -227 0
164 -431 0
430 -431 0
-164 -430 431 0
101 -432 0
38 -432 0
-101 -38 432 0
-431 291 0
-432 291 0
431 432 -291 0
39 102 -433 0
-39 102 433 0
39 -102 433 0
-39 -102 -433 0
433 165 -228 0
-433 165 228 0
433 -165 228 0
-433 -165 -228 0
165 -434 0
433 -434 0
-165 -433 434 0
102 -435 0
39 -435 0
-102 -39 435 0
-434 292 0
-435 292 0
434 435 -292 0
40 103 -436 0
-40 103 436 0
40 -103 436 0
-40 -103 -436 0
436 166 -229 0
-436 166 229 0
436 -166 229 0
-436 -166 -229 0
166 -437 0
436 -437 0
-166 -436 437 0
103 -438 0
40 -438 0
-103 -40 438 0
-437 293 0
-438 293 0
437 438 -293 0
41 104 -439 0
-41 104 439 0
41 -104 439 0
-41 -104 -439 0
439 167 -230 0
-439 167 230 0
439 -167 230 0
-439 -167 -230 0
167 -440 0
439 -440 0
-167 -439 440 0
104 -441 0
41 -441 0
-104 -41 441 0
-440 294 0
-441 294 0
440 441 -294 0
42 105 -442 0
-42 105 442 0
42 -105 442 0
-42 -105 -442 0
442 168 -231 0
-442 168 231 0
442 -168 231 0
-442 -168 -231 0
168 -443 0
442 -443 0
-168 -442 443 0
105 -444 0
42 -444 0
-105 -42 444 0
-443 295 0
-444 295 0
443 444 -295 0
43 106 -445 0
-43 106 445 0
43 -106 445 0
-43 -106 -445 0
445 169 -232 0
-445 169 232 0
445 -169 232 0
-445 -169 -232 0
169 -446 0
445 -446 0
-169 -445 446 0
106 -447 0
43 -447 0
-106 -43 447 0
-446 296 0
-447 296 0
446 447 -296 0
44 107 -448 0
-44 107 448 0
44 -107 448 0
-44 -107 -448 0
448 170 -233 0
-448 170 233 0
448 -170 233 0
-448 -170 -233 0
170 -449 0
448 -449 0
-170 -448 449 0
107 -450 0
44 -450 0
-107 -44 450 0
-449 297 0
-450 297 0
449 450 -297 0
45 108 -451 0
-45 108 451 0
45 -108 451 0
-45 -108 -451 0
451 171 -234 0
-451 171 234 0
451 -171 234 0
-451 -171 -234 0
171 -452 0
451 -452 0
-171 -451 452 0
108 -453 0
45 -453 0
-108 -45 453 0
-452 298 0
-453 298 0
452 453 -298 0
46 109 -454 0
-46 109 454 0
46 -109 454 0
-46 -109 -454 0
454 172 -235 0
-454 172 235 0
454 -172 235 0
-454 -172 -235 0
172 -455 0
454 -455 0
-172 -454 455 0
109 -456 0
46 -456 0
-109 -46 456 0
-455 299 0
-456 299 0
455 456 -299 0
47 110 -457 0
-47 110 457 0
47 -110 457 0
-47 -110 -457 0
457 173 -236 0
-457 173 236 0
457 -173 236 0
-457 -173 -236 0
173 -458 0
457 -458 0
-173 -457 458 0
110 -459 0
47 -459 0
-110 -47 459 0
-458 300 0
-459 300 0
458 459 -300 0
48 111 -460 0
-48 111 460 0
48 -111 460 0
-48 -111 -460 0
460 174 -237 0
-460 174 237 0
460 -174 237 0
-460 -174 -237 0
174 -461 0
460 -461 0
-174 -460 461 0
111 -462 0
48 -462 0
-111 -48 462 0
-461 301 0
-462 301 0
461 462 -301 0
49 112 -463 0
-49 112 463 0
49 -112 463 0
-49 -112 -463 0
463 175 -238 0
-463 175 238 0
463 -175 238 0
-463 -175 -238 0
175 -464 0
463 -464 0
-175 -463 464 0
112 -465 0
49 -465 0
-112 -49 465 0
-464 302 0
-465 302 0
464 465 -302 0
50 113 -466 0
-50 113 466 0
50 -113 466 0
-50 -113 -466 0
466 176 -239 0
-466 176 239 0
466 -176 239 0
-466 -176 -239 0
176 -467 0
466 -467 0
-176 -466 467 0
113 -468 0
50 -468 0
-113 -50 468 0
-467 303 0
-468 303 0
467 468 -303 0
51 114 -469 0
-51 114 469 0
51 -114 469 0
-51 -114 -469 0
469 177 -240 0
-469 177 240 0
469 -177 240 0
-469 -177 -240 0
177 -470 0
469 -470 0
-177 -469 470 0
114 -471 0
51 -471 0
-114 -51 471 0
-470 304 0
-471 304 0
470 471 -304 0
52 115 -472 0
-52 115 472 0
52 -115 472 0
-52 -115 -472 0
472 178 -241 0
-472 178 241 0
472 -178 241 0
-472 -178 -241 0
178 -473 0
472 -473 0
-178 -472 473 0
115 -474 0
52 -474 0
-115 -52 474 0
-473 305 0
-474 305 0
473 474 -305 0
53 116 -475 0
-53 116 475 0
53 -116 475 0
-53 -116 -475 0
475 179 -242 0
-475 179 242 0
475 -179 242 0
-475 -179 -242 0
179 -476 0
475 -476 0
-179 -475 476 0
116 -477 0
53 -477 0
-116 -53 477 0
-476 306 0
-477 306 0
476 477 -306 0
54 117 -478 0
-54 117 478 0
54 -117 478 0
-54 -117 -478 0
478 180 -243 0
-478 180 243 0
478 -180 243 0
-478 -180 -243 0
180 -479 0
478 -479 0
-180 -478 479 0
117 -480 0
54 -480 0
-117 -54 480 0
-479 307 0
-480 307 0
479 480 -307 0
55 118 -481 0
-55 118 481 0
55 -118 481 0
-55 -118 -481 0
481 181 -244 0
-481 181 244 0
481 -181 244 0
-481 -181 -244 0
181 -482 0
481 -482 0
-181 -481 482 0
118 -483 0
55 -483 0
-118 -55 483 0
-482 308 0
-483 308 0
482 483 -308 0
56 119 -484 0
-56 119 484 0
56 -119 484 0
-56 -119 -484 0
484 182 -245 0
-484 182 245 0
484 -182 245 0
-484 -182 -245 0
182 -485 0
484 -485 0
-182 -484 485 0
119 -486 0
56 -486 0
-119 -56 486 0
-485 309 0
-486 309 0
485 486 -309 0
57 120 -487 0
-57 120 487 0
57 -120 487 0
-57 -120 -487 0
487 183 -246 0
-487 183 246 0
487 -183 246 0
-487 -183 -246 0
183 -488 0
487 -488 0
-183 -487 488 0
120 -489 0
57 -489 0
-120 -57 489 0
-488 310 0
-489 310 0
488 489 -310 0
58 121 -490 0
-58 121 490 0
58 -121 490 0
-58 -121 -490 0
490 184 -247 0
-490 184 247 0
490 -184 247 0
-490 -184 -247 0
184 -491 0
490 -491 0
-184 -490 491 0
121 -492 0
58 -492 0
-121 -58 492 0
-491 311 0
-492 311 0
491 492 -311 0
59 122 -493 0
-59 122 493 0
59 -122 493 0
-59 -122 -493 0
493 185 -248 0
-493 185 248 0
493 -185 248 0
-493 -185 -248 0
185 -494 0
493 -494 0
-185 -493 494 0
122 -495 0
59 -495 0
-122 -59 495 0
-494 312 0
-495 312 0
494 495 -312 0
60 123 -496 0
-60 123 496 0
60 -123 496 0
-60 -123 -496 0
496 186 -249 0
-496 186 249 0
496 -186 249 0
-496 -186 -249 0
186 -497 0
496 -497 0
-186 -496 497 0
123 -498 0
60 -498 0
-123 -60 498 0
-497 313 0
-498 313 0
497 498 -313 0
61 124 -499 0
-61 124 499 0
61 -124 499 0
-61 -124 -499 0
499 187 -250 0
-499 187 250 0
499 -187 250 0
-499 -187 -250 0
187 -500 0
499 -500 0
-187 -499 500 0
124 -501 0
61 -501 0
-124 -61 501 0
-500 314 0
-501 314 0
500 501 -314 0
62 125 -502 0
-62 125 502 0
62 -125 502 0
-62 -125 -502 0
502 188 -251 0
-502 188 251 0
502 -188 251 0
-502 -188 -251 0
188 -503 0
502 -503 0
-188 -502 503 0
125 -504 0
62 -504 0
-125 -62 504 0
-503 315 0
-504 315 0
503 504 -315 0
63 126 -505 0
-63 126 505 0
63 -126 505 0
-63 -126 -505 0
505 189 -252 0
-505 189 252 0
505 -189 252 0
-505 -189 -252 0
189 -506 0
505 -506 0
-189 -505 506 0
126 -507 0
63 -507 0
-126 -63 507 0
-506 316 0
-507 316 0
506 507 -316 0
